 GaAs      
1.0
   4.16045391014220       0.000000000000000E+000  0.000000000000000E+000
  4.827840627213360E-007   6.39466880013682       0.000000000000000E+000
   1.73381485086629       2.263290305082836E-007   4.40252700805406     
           5           5
Direct
  0.696891358232015       0.500000000000000       0.655823019680080     
  0.609348036718825       0.751583167298029       0.996985046073666     
  0.609348036718825       0.248416832701971       0.996985046073666     
  6.166849715720023E-002  0.695900322939979       0.278800167468383     
  6.166849715720023E-002  0.304099677060021       0.278800167468383     
  0.771190217952787       0.000000000000000E+000  0.558619623297204     
  0.149725376035392       0.000000000000000E+000  8.561686485886254E-003
  6.741031339851969E-002  0.500000000000000       0.899313453790564     
  0.349557359103288       0.732628436886433       0.583600127420392     
  0.349557359103288       0.267371563113567       0.583600127420392     
