 GaAs      
1.0
   2.28881631811470       -4.81138094411800       0.000000000000000E+000
   2.28881704461301        4.81138094411800       0.000000000000000E+000
   2.42524011018653       2.581789825581326E-007   5.31802142631114     
           5           5
Direct
  0.808933445606073       0.808933445606073       0.934401820611279     
  0.235094557974039       0.235094557974039       0.209840396343001     
  0.553043112628470       0.553043112628470       0.407482236454258     
  0.207679765137275       0.821470993489507       0.668454908681411     
  0.821470993489507       0.207679765137275       0.668454908681411     
  0.345587619754926       0.345587619754926       0.816558242965232     
  0.268940819362164       0.689460034763485       0.337501403264523     
  0.689460034763485       0.268940819362164       0.337501403264523     
  0.866459253546333       0.196896417874932       3.497549377983288E-002
  0.196896417874932       0.866459253546333       3.497549377983288E-002
