 GaAs      
1.0
   7.68901696481107       0.000000000000000E+000  0.000000000000000E+000
  5.805046304392383E-007   7.68901696481105       0.000000000000000E+000
  1.495732875430440E-007  1.495732762505754E-007   1.98115826316635     
           5           5
Direct
  0.000000000000000E+000  0.000000000000000E+000  0.397041870629674     
  0.308287929373082       0.858891867103896       0.493637235816178     
  0.691712070626918       0.141108132896104       0.493637235816178     
  0.141108132896104       0.308287929373082       0.493637235816178     
  0.858891867103896       0.691712070626918       0.493637235816178     
  0.500000000000000       0.500000000000000       0.476825610050082     
  0.883679668937236       0.430309869617381       0.110612623580765     
  0.116320331062764       0.569690130382619       0.110612623580765     
  0.569690130382619       0.883679668937236       0.110612623580765     
  0.430309869617381       0.116320331062764       0.110612623580765     
