 GaAs      
1.0
  -3.88589299240421        2.11411820850466        3.56435312083658     
   3.88589353060656       -2.11411767030235        3.56435312083658     
   3.88589331162714        2.11411767030235       -3.56435312083658     
           5           5
Direct
  0.969722805743308       0.969722805743308       0.000000000000000E+000
  0.643634281451307       0.643634281451307       0.000000000000000E+000
  0.304387477865877       0.804387477865877       0.500000000000000     
  0.775345590852374       9.963946205999230E-002  0.324293871207618     
  0.775345590852374       0.451051719644756       0.675706128792382     
  3.547827620787203E-003  0.503547827620787       0.500000000000000     
  0.766415394444626       0.780332117028640       0.518932858067234     
  0.261399258961406       0.247482536377392       0.481067141932765     
  0.261399258961406       0.780332117028640       1.391672258401355E-002
  0.766415394444626       0.247482536377392       0.986083277415986     
