 GaAs      
1.0
   6.21153187012434       0.000000000000000E+000  0.000000000000000E+000
   4.23724280076448        4.54190506516153       0.000000000000000E+000
   4.23724280076448        1.84185755222859        4.15168187343858     
           5           5
Direct
  0.424423953088016       0.424423953088016       0.424423953088016     
  0.285322702141678       0.285322702141678       0.285322702141678     
  0.749369473055192       0.230681745618557       0.647667505802463     
  0.647667505802463       0.749369473055192       0.230681745618557     
  0.230681745618557       0.647667505802463       0.749369473055192     
  0.712610127204963       0.712610127204963       0.712610127204963     
  0.996614012267528       0.996614012267528       0.996614012267528     
  4.044772798104990E-002  0.932172644527010       0.398437057559913     
  0.398437057559913       4.044772798104990E-002  0.932172644527010     
  0.932172644527010       0.398437057559913       4.044772798104990E-002
