 GaAs      
1.0
  -1.37113670963366        4.49895784061411        4.74687684750868     
   1.37113742639212       -4.49895712385570        4.74687684750868     
   1.37113738895734        4.49895712385570       -4.74687684750868     
           5           5
Direct
  0.447108753958830       0.447108753958830       0.000000000000000E+000
  0.852292611005189       0.852292611005189       0.000000000000000E+000
  0.176247897549100       0.176247897549100       0.000000000000000E+000
  0.619035509237096       0.347588571042301       0.271446938194795     
  7.614163284750575E-002  0.347588571042301       0.728553061805205     
  0.624540525295746       0.124540525295746       0.500000000000000     
  0.510623614025768       0.684299560340801       0.826324053684967     
  0.857975506655834       0.684299560340801       0.173675946315033     
  0.315442741295617       9.685494389043647E-003  0.305757246906573     
  0.703928247482470       9.685494389043647E-003  0.694242753093427     
