 GaAs      
1.0
   4.89407093945051       0.000000000000000E+000  0.000000000000000E+000
  0.114277233024483        4.89273656294576       0.000000000000000E+000
  0.114277233024483       0.111639282469225        4.89146274083694     
           5           5
Direct
  0.000000000000000E+000  0.000000000000000E+000  0.000000000000000E+000
  0.500000000000000       0.500000000000000       0.500000000000000     
  0.500000000000000       0.000000000000000E+000  0.000000000000000E+000
  0.000000000000000E+000  0.500000000000000       0.000000000000000E+000
  0.000000000000000E+000  0.000000000000000E+000  0.500000000000000     
  0.252445502885555       0.252445502885555       0.252445502885555     
  0.747554497114445       0.747554497114445       0.747554497114445     
  0.000000000000000E+000  0.500000000000000       0.500000000000000     
  0.500000000000000       0.000000000000000E+000  0.500000000000000     
  0.500000000000000       0.500000000000000       0.000000000000000E+000
