 GaAs      
1.0
  -3.53806017750884        3.53806079783676        2.33921608461651     
   3.53806053072064       -3.53806044462499        2.33921608461651     
   3.53806071174113        3.53806044462499       -2.33921608461651     
           5           5
Direct
  0.000000000000000E+000  0.000000000000000E+000  0.000000000000000E+000
  0.249647582983618       0.249647582983618       0.499295165967237     
  0.750352417016382       0.750352417016382       0.500704834032763     
  0.750352417016382       0.249647582983618       0.000000000000000E+000
  0.249647582983618       0.750352417016382       0.000000000000000E+000
  0.500000000000000       0.500000000000000       0.000000000000000E+000
  0.237826184935507       0.522956819949358       0.285130635013852     
  0.237826184935507       0.952695549921655       0.714869364986148     
  0.477043180050642       0.762173815064493       0.714869364986148     
  4.730445007834483E-002  0.762173815064493       0.285130635013852     
