 GaAs      
1.0
  -2.08244759641817        2.08244877320913        6.75231059003722     
   2.08244861598870       -2.08244775363867        6.75231059003722     
   2.08244791085911        2.08244775363867       -6.75231059003722     
           5           5
Direct
  0.000000000000000E+000  0.000000000000000E+000  0.000000000000000E+000
  0.120327417146334       0.620327417146334       0.500000000000000     
  0.620327417146334       0.120327417146334       0.500000000000000     
  0.879672582853666       0.379672582853666       0.500000000000000     
  0.379672582853666       0.879672582853666       0.500000000000000     
  0.500000000000000       0.500000000000000       0.000000000000000E+000
  0.320026383829415       0.320026383829415       0.000000000000000E+000
  0.679973616170584       0.679973616170584       0.000000000000000E+000
  0.168415082765408       0.168415082765408       0.000000000000000E+000
  0.831584917234591       0.831584917234591       0.000000000000000E+000
