 GaAs      
1.0
  -3.03541203616535        3.32268656276577        2.90331243383126     
   3.03541247455333       -3.32268612437782        2.90331243383126     
   3.03541253787703        3.32268612437782       -2.90331243383126     
           5           5
Direct
  0.703428465077383       0.203428465077383       0.500000000000000     
  2.033142034344871E-002  0.801660183882859       0.781328763539410     
  2.033142034344871E-002  0.239002656804039       0.218671236460590     
  0.550508648060834       0.838138649818386       0.712369998242448     
  0.125768651575938       0.838138649818386       0.287630001757552     
  0.659359994365646       0.659359994365646       0.000000000000000E+000
  0.414187236784917       0.159995858371091       0.745808621586175     
  0.414187236784917       0.668378615198742       0.254191378413825     
  0.505028499722211       0.312236700458507       0.192791799263704     
  0.119444901194803       0.312236700458507       0.807208200736296     
